objective value:                                10028
t_x_3                                               1 	(obj:34)
t_x_6                                               1 	(obj:5)
t_x_8                                               1 	(obj:1)
t_x_12                                              1 	(obj:12)
t_x_15                                              1 	(obj:31)
t_x_17                                              1 	(obj:17)
t_x_18                                              1 	(obj:19)
t_x_22                                              1 	(obj:42)
t_x_25                                              1 	(obj:8)
t_x_34                                              1 	(obj:15)
t_x_44                                              1 	(obj:24)
t_x_51                                              1 	(obj:46)
t_x_57                                              1 	(obj:1)
t_x_61                                              1 	(obj:28)
t_x_63                                              1 	(obj:66)
t_x_67                                              1 	(obj:12)
t_x_70                                              1 	(obj:26)
t_x_71                                              1 	(obj:58)
t_x_72                                              1 	(obj:5)
t_x_74                                              1 	(obj:22)
t_x_76                                              1 	(obj:40)
t_x_79                                              1 	(obj:7)
t_x_82                                              1 	(obj:47)
t_x_83                                              1 	(obj:26)
t_x_85                                              1 	(obj:26)
t_x_87                                              1 	(obj:45)
t_x_88                                              1 	(obj:20)
t_x_89                                              1 	(obj:9)
t_x_92                                              1 	(obj:33)
t_x_96                                              1 	(obj:1)
t_x_118                                             1 	(obj:13)
t_x_121                                             1 	(obj:0)
t_x_126                                             1 	(obj:4)
t_x_128                                             1 	(obj:11)
t_x_139                                             1 	(obj:36)
t_x_143                                             1 	(obj:12)
t_x_149                                             1 	(obj:9)
t_x_154                                             1 	(obj:14)
t_x_160                                             1 	(obj:8)
t_x_166                                             1 	(obj:35)
t_x_169                                             1 	(obj:10)
t_x_173                                             1 	(obj:12)
t_x_174                                             1 	(obj:18)
t_x_175                                             1 	(obj:23)
t_x_181                                             1 	(obj:11)
t_x_186                                             1 	(obj:15)
t_x_188                                             1 	(obj:52)
t_x_189                                             1 	(obj:33)
t_x_190                                             1 	(obj:17)
t_x_192                                             1 	(obj:17)
t_x_197                                             1 	(obj:7)
t_x_198                                             1 	(obj:8)
t_x_200                                             1 	(obj:33)
t_x_203                                             1 	(obj:4)
t_x_204                                             1 	(obj:54)
t_x_209                                             1 	(obj:11)
t_x_211                                             1 	(obj:9)
t_x_216                                             1 	(obj:6)
t_x_217                                             1 	(obj:53)
t_x_220                                             1 	(obj:29)
t_x_221                                             1 	(obj:61)
t_x_222                                             1 	(obj:28)
t_x_223                                             1 	(obj:23)
t_x_226                                             1 	(obj:6)
t_x_227                                             1 	(obj:17)
t_x_229                                             1 	(obj:9)
t_x_238                                             1 	(obj:2)
t_x_239                                             1 	(obj:21)
t_x_244                                             1 	(obj:32)
t_x_256                                             1 	(obj:9)
t_x_265                                             1 	(obj:38)
t_x_267                                             1 	(obj:38)
t_x_268                                             1 	(obj:16)
t_x_270                                             1 	(obj:38)
t_x_272                                             1 	(obj:8)
t_x_275                                             1 	(obj:13)
t_x_279                                             1 	(obj:7)
t_x_281                                             1 	(obj:8)
t_x_294                                             1 	(obj:3)
t_x_298                                             1 	(obj:13)
t_x_299                                             1 	(obj:15)
t_x_301                                             1 	(obj:8)
t_x_306                                             1 	(obj:22)
t_x_307                                             1 	(obj:20)
t_x_308                                             1 	(obj:9)
t_x_309                                             1 	(obj:31)
t_x_310                                             1 	(obj:10)
t_x_317                                             1 	(obj:1)
t_x_319                                             1 	(obj:9)
t_x_320                                             1 	(obj:16)
t_x_321                                             1 	(obj:32)
t_x_326                                             1 	(obj:17)
t_x_330                                             1 	(obj:10)
t_x_331                                             1 	(obj:3)
t_x_333                                             1 	(obj:15)
t_x_337                                             1 	(obj:9)
t_x_342                                             1 	(obj:22)
t_x_343                                             1 	(obj:16)
t_x_344                                             1 	(obj:7)
t_x_345                                             1 	(obj:12)
t_x_346                                             1 	(obj:25)
t_x_349                                             1 	(obj:45)
t_x_354                                             1 	(obj:17)
t_x_364                                             1 	(obj:44)
t_x_372                                             1 	(obj:24)
t_x_373                                             1 	(obj:1)
t_x_374                                             1 	(obj:31)
t_x_377                                             1 	(obj:2)
t_x_382                                             1 	(obj:14)
t_x_397                                             1 	(obj:5)
t_x_407                                             1 	(obj:18)
t_x_412                                             1 	(obj:15)
t_x_415                                             1 	(obj:21)
t_x_420                                             1 	(obj:12)
t_x_422                                             1 	(obj:14)
t_x_423                                             1 	(obj:20)
t_x_427                                             1 	(obj:1)
t_x_428                                             1 	(obj:11)
t_x_430                                             1 	(obj:0)
t_x_435                                             1 	(obj:13)
t_x_438                                             1 	(obj:13)
t_x_442                                             1 	(obj:5)
t_x_449                                             1 	(obj:15)
t_x_450                                             1 	(obj:19)
t_x_451                                             1 	(obj:4)
t_x_452                                             1 	(obj:6)
t_x_456                                             1 	(obj:28)
t_x_457                                             1 	(obj:28)
t_x_460                                             1 	(obj:23)
t_x_467                                             1 	(obj:21)
t_x_469                                             1 	(obj:23)
t_x_470                                             1 	(obj:51)
t_x_474                                             1 	(obj:11)
t_x_475                                             1 	(obj:48)
t_x_477                                             1 	(obj:14)
t_x_478                                             1 	(obj:17)
t_x_479                                             1 	(obj:6)
t_x_482                                             1 	(obj:5)
t_x_486                                             1 	(obj:12)
t_x_487                                             1 	(obj:25)
t_x_490                                             1 	(obj:1)
t_x_494                                             1 	(obj:7)
t_x_495                                             1 	(obj:23)
t_x_498                                             1 	(obj:5)
t_x_499                                             1 	(obj:9)
t_x_507                                             1 	(obj:6)
t_x_509                                             1 	(obj:12)
t_x_513                                             1 	(obj:42)
t_x_515                                             1 	(obj:10)
t_x_516                                             1 	(obj:2)
t_x_517                                             1 	(obj:21)
t_x_518                                             1 	(obj:32)
t_x_520                                             1 	(obj:5)
t_x_521                                             1 	(obj:24)
t_x_522                                             1 	(obj:2)
t_x_525                                             1 	(obj:26)
t_x_527                                             1 	(obj:15)
t_x_530                                             1 	(obj:1)
t_x_531                                             1 	(obj:19)
t_x_532                                             1 	(obj:47)
t_x_533                                             1 	(obj:14)
t_x_534                                             1 	(obj:21)
t_x_535                                             1 	(obj:9)
t_x_538                                             1 	(obj:4)
t_x_539                                             1 	(obj:31)
t_x_542                                             1 	(obj:0)
t_x_546                                             1 	(obj:24)
t_x_548                                             1 	(obj:23)
t_x_550                                             1 	(obj:45)
t_x_551                                             1 	(obj:2)
t_x_553                                             1 	(obj:22)
t_x_557                                             1 	(obj:22)
t_x_560                                             1 	(obj:16)
t_x_572                                             1 	(obj:17)
t_x_576                                             1 	(obj:12)
t_x_580                                             1 	(obj:29)
t_x_581                                             1 	(obj:42)
t_x_590                                             1 	(obj:6)
t_x_592                                             1 	(obj:36)
t_x_602                                             1 	(obj:4)
t_x_603                                             1 	(obj:53)
t_x_610                                             1 	(obj:2)
t_x_611                                             1 	(obj:9)
t_x_617                                             1 	(obj:1)
t_x_619                                             1 	(obj:26)
t_x_623                                             1 	(obj:4)
t_x_629                                             1 	(obj:32)
t_x_635                                             1 	(obj:1)
t_x_636                                             1 	(obj:32)
t_x_637                                             1 	(obj:35)
t_x_638                                             1 	(obj:29)
t_x_641                                             1 	(obj:15)
t_x_642                                             1 	(obj:11)
t_x_643                                             1 	(obj:32)
t_x_648                                             1 	(obj:8)
t_x_652                                             1 	(obj:30)
t_x_659                                             1 	(obj:6)
t_x_664                                             1 	(obj:18)
t_x_666                                             1 	(obj:48)
t_x_669                                             1 	(obj:2)
t_x_676                                             1 	(obj:1)
t_x_678                                             1 	(obj:2)
t_x_683                                             1 	(obj:15)
t_x_687                                             1 	(obj:14)
t_x_688                                             1 	(obj:29)
t_x_689                                             1 	(obj:0)
t_x_691                                             1 	(obj:49)
t_x_693                                             1 	(obj:8)
t_x_704                                             1 	(obj:9)
t_x_708                                             1 	(obj:10)
t_x_710                                             1 	(obj:7)
t_x_715                                             1 	(obj:7)
t_x_717                                             1 	(obj:19)
t_x_718                                             1 	(obj:7)
t_x_725                                             1 	(obj:6)
t_x_729                                             1 	(obj:9)
t_x_730                                             1 	(obj:11)
t_x_737                                             1 	(obj:17)
t_x_742                                             1 	(obj:0)
t_x_745                                             1 	(obj:14)
t_x_748                                             1 	(obj:23)
t_x_749                                             1 	(obj:6)
t_x_754                                             1 	(obj:8)
t_x_757                                             1 	(obj:14)
t_x_763                                             1 	(obj:14)
t_x_772                                             1 	(obj:11)
t_x_776                                             1 	(obj:8)
t_x_782                                             1 	(obj:20)
t_x_784                                             1 	(obj:10)
t_x_785                                             1 	(obj:14)
t_x_788                                             1 	(obj:30)
t_x_791                                             1 	(obj:0)
t_x_793                                             1 	(obj:1)
t_x_796                                             1 	(obj:22)
t_x_800                                             1 	(obj:34)
t_x_803                                             1 	(obj:23)
t_x_814                                             1 	(obj:9)
t_x_816                                             1 	(obj:22)
t_x_822                                             1 	(obj:39)
t_x_823                                             1 	(obj:13)
t_x_824                                             1 	(obj:8)
t_x_826                                             1 	(obj:11)
t_x_829                                             1 	(obj:20)
t_x_832                                             1 	(obj:70)
t_x_841                                             1 	(obj:9)
t_x_859                                             1 	(obj:20)
t_x_862                                             1 	(obj:10)
t_x_863                                             1 	(obj:7)
t_x_866                                             1 	(obj:14)
t_x_867                                             1 	(obj:6)
t_x_870                                             1 	(obj:13)
t_x_871                                             1 	(obj:17)
t_x_876                                             1 	(obj:52)
t_x_878                                             1 	(obj:32)
t_x_886                                             1 	(obj:21)
t_x_887                                             1 	(obj:52)
t_x_889                                             1 	(obj:10)
t_x_894                                             1 	(obj:7)
t_x_898                                             1 	(obj:3)
t_x_900                                             1 	(obj:25)
t_x_905                                             1 	(obj:41)
t_x_911                                             1 	(obj:1)
t_x_916                                             1 	(obj:21)
t_x_921                                             1 	(obj:24)
t_x_922                                             1 	(obj:11)
t_x_924                                             1 	(obj:1)
t_x_925                                             1 	(obj:11)
t_x_926                                             1 	(obj:9)
t_x_927                                             1 	(obj:8)
t_x_929                                             1 	(obj:28)
t_x_934                                             1 	(obj:13)
t_x_937                                             1 	(obj:9)
t_x_947                                             1 	(obj:29)
t_x_948                                             1 	(obj:3)
t_x_949                                             1 	(obj:3)
t_x_951                                             1 	(obj:9)
t_x_958                                             1 	(obj:9)
t_x_960                                             1 	(obj:12)
t_x_961                                             1 	(obj:2)
t_x_963                                             1 	(obj:31)
t_x_964                                             1 	(obj:6)
t_x_969                                             1 	(obj:1)
t_x_976                                             1 	(obj:10)
t_x_980                                             1 	(obj:9)
t_x_987                                             1 	(obj:8)
t_x_991                                             1 	(obj:1)
t_x_993                                             1 	(obj:19)
t_x_995                                             1 	(obj:6)
t_x_996                                             1 	(obj:71)
t_x_999                                             1 	(obj:4)
t_x_1000                                            1 	(obj:62)
t_x_1004                                            1 	(obj:6)
t_x_1006                                            1 	(obj:2)
t_x_1007                                            1 	(obj:0)
t_x_1009                                            1 	(obj:5)
t_x_1011                                            1 	(obj:45)
t_x_1025                                            1 	(obj:12)
t_x_1032                                            1 	(obj:10)
t_x_1034                                            1 	(obj:29)
t_x_1036                                            1 	(obj:21)
t_x_1037                                            1 	(obj:19)
t_x_1051                                            1 	(obj:3)
t_x_1062                                            1 	(obj:28)
t_x_1064                                            1 	(obj:1)
t_x_1065                                            1 	(obj:20)
t_x_1074                                            1 	(obj:4)
t_x_1077                                            1 	(obj:5)
t_x_1083                                            1 	(obj:14)
t_x_1087                                            1 	(obj:26)
t_x_1090                                            1 	(obj:5)
t_x_1095                                            1 	(obj:45)
t_x_1099                                            1 	(obj:39)
t_x_1100                                            1 	(obj:40)
t_x_1101                                            1 	(obj:22)
t_x_1104                                            1 	(obj:9)
t_x_1108                                            1 	(obj:21)
t_x_1110                                            1 	(obj:30)
t_x_1112                                            1 	(obj:13)
t_x_1116                                            1 	(obj:2)
t_x_1127                                            1 	(obj:15)
t_x_1134                                            1 	(obj:15)
t_x_1138                                            1 	(obj:21)
t_x_1139                                            1 	(obj:40)
t_x_1140                                            1 	(obj:16)
t_x_1143                                            1 	(obj:10)
t_x_1146                                            1 	(obj:40)
t_x_1151                                            1 	(obj:66)
t_x_1154                                            1 	(obj:8)
t_x_1156                                            1 	(obj:4)
t_x_1174                                            1 	(obj:6)
t_x_1179                                            1 	(obj:15)
t_x_1182                                            1 	(obj:6)
t_x_1187                                            1 	(obj:23)
t_x_1191                                            1 	(obj:46)
t_x_1193                                            1 	(obj:31)
t_x_1199                                            1 	(obj:14)
t_x_1201                                            1 	(obj:30)
t_x_1209                                            1 	(obj:11)
t_x_1213                                            1 	(obj:6)
t_x_1214                                            1 	(obj:28)
t_x_1216                                            1 	(obj:9)
t_x_1219                                            1 	(obj:27)
t_x_1222                                            1 	(obj:28)
t_x_1224                                            1 	(obj:36)
t_x_1231                                            1 	(obj:24)
t_x_1235                                            1 	(obj:1)
t_x_1241                                            1 	(obj:0)
t_x_1250                                            1 	(obj:14)
t_x_1251                                            1 	(obj:20)
t_x_1253                                            1 	(obj:13)
t_x_1256                                            1 	(obj:12)
t_x_1257                                            1 	(obj:10)
t_x_1259                                            1 	(obj:10)
t_x_1260                                            1 	(obj:5)
t_x_1265                                            1 	(obj:16)
t_x_1266                                            1 	(obj:23)
t_x_1272                                            1 	(obj:10)
t_x_1275                                            1 	(obj:8)
t_x_1282                                            1 	(obj:3)
t_x_1287                                            1 	(obj:15)
t_x_1295                                            1 	(obj:2)
t_x_1297                                            1 	(obj:17)
t_x_1300                                            1 	(obj:20)
t_x_1303                                            1 	(obj:11)
t_x_1304                                            1 	(obj:47)
t_x_1305                                            1 	(obj:9)
t_x_1306                                            1 	(obj:23)
t_x_1308                                            1 	(obj:12)
t_x_1311                                            1 	(obj:42)
t_x_1312                                            1 	(obj:14)
t_x_1314                                            1 	(obj:61)
t_x_1315                                            1 	(obj:19)
t_x_1316                                            1 	(obj:6)
t_x_1321                                            1 	(obj:1)
t_x_1322                                            1 	(obj:5)
t_x_1327                                            1 	(obj:5)
t_x_1329                                            1 	(obj:12)
t_x_1331                                            1 	(obj:12)
t_x_1334                                            1 	(obj:10)
t_x_1335                                            1 	(obj:6)
t_x_1336                                            1 	(obj:2)
t_x_1338                                            1 	(obj:6)
t_x_1343                                            1 	(obj:2)
t_x_1347                                            1 	(obj:24)
t_x_1352                                            1 	(obj:50)
t_x_1354                                            1 	(obj:11)
t_x_1362                                            1 	(obj:37)
t_x_1364                                            1 	(obj:26)
t_x_1366                                            1 	(obj:11)
t_x_1367                                            1 	(obj:43)
t_x_1369                                            1 	(obj:23)
t_x_1371                                            1 	(obj:4)
t_x_1378                                            1 	(obj:0)
t_x_1383                                            1 	(obj:6)
t_x_1388                                            1 	(obj:14)
t_x_1390                                            1 	(obj:14)
t_x_1391                                            1 	(obj:6)
t_x_1393                                            1 	(obj:3)
t_x_1398                                            1 	(obj:6)
t_x_1402                                            1 	(obj:4)
t_x_1405                                            1 	(obj:9)
t_x_1408                                            1 	(obj:5)
t_x_1411                                            1 	(obj:32)
t_x_1415                                            1 	(obj:12)
t_x_1425                                            1 	(obj:1)
t_x_1427                                            1 	(obj:18)
t_x_1431                                            1 	(obj:27)
t_x_1432                                            1 	(obj:12)
t_x_1438                                            1 	(obj:17)
t_x_1447                                            1 	(obj:18)
t_x_1448                                            1 	(obj:62)
t_x_1451                                            1 	(obj:33)
t_x_1466                                            1 	(obj:30)
t_x_1472                                            1 	(obj:27)
t_x_1475                                            1 	(obj:14)
t_x_1487                                            1 	(obj:8)
t_x_1495                                            1 	(obj:7)
t_x_1497                                            1 	(obj:62)
t_x_1509                                            1 	(obj:15)
t_x_1511                                            1 	(obj:15)
t_x_1512                                            1 	(obj:45)
t_x_1519                                            1 	(obj:5)
t_x_1522                                            1 	(obj:15)
t_x_1528                                            1 	(obj:11)
t_x_1533                                            1 	(obj:6)
t_x_1535                                            1 	(obj:1)
t_x_1541                                            1 	(obj:1)
t_x_1542                                            1 	(obj:17)
t_x_1543                                            1 	(obj:6)
t_x_1544                                            1 	(obj:35)
t_x_1546                                            1 	(obj:18)
t_x_1549                                            1 	(obj:8)
t_x_1550                                            1 	(obj:26)
t_x_1551                                            1 	(obj:13)
t_x_1556                                            1 	(obj:20)
t_x_1558                                            1 	(obj:0)
t_x_1559                                            1 	(obj:24)
t_x_1564                                            1 	(obj:7)
t_x_1569                                            1 	(obj:23)
t_x_1573                                            1 	(obj:7)
t_x_1575                                            1 	(obj:12)
t_x_1581                                            1 	(obj:13)
t_x_1586                                            1 	(obj:17)
t_x_1589                                            1 	(obj:2)
t_x_1590                                            1 	(obj:25)
t_x_1592                                            1 	(obj:20)
t_x_1599                                            1 	(obj:20)
t_x_1600                                            1 	(obj:2)
t_x_1602                                            1 	(obj:31)
t_x_1608                                            1 	(obj:0)
t_x_1609                                            1 	(obj:3)
t_x_1610                                            1 	(obj:46)
t_x_1615                                            1 	(obj:37)
t_x_1616                                            1 	(obj:11)
t_x_1622                                            1 	(obj:12)
t_x_1625                                            1 	(obj:4)
t_x_1626                                            1 	(obj:6)
t_x_1629                                            1 	(obj:47)
t_x_1630                                            1 	(obj:31)
t_x_1632                                            1 	(obj:4)
t_x_1634                                            1 	(obj:6)
t_x_1637                                            1 	(obj:9)
t_x_1640                                            1 	(obj:4)
t_x_1648                                            1 	(obj:27)
t_x_1657                                            1 	(obj:13)
t_x_1659                                            1 	(obj:28)
t_x_1671                                            1 	(obj:9)
t_x_1673                                            1 	(obj:52)
t_x_1677                                            1 	(obj:23)
t_x_1684                                            1 	(obj:0)
t_x_1693                                            1 	(obj:4)
t_x_1695                                            1 	(obj:27)
t_x_1697                                            1 	(obj:11)
t_x_1702                                            1 	(obj:41)
t_x_1705                                            1 	(obj:38)
t_x_1711                                            1 	(obj:6)
t_x_1712                                            1 	(obj:12)
t_x_1713                                            1 	(obj:3)
t_x_1717                                            1 	(obj:17)
t_x_1719                                            1 	(obj:29)
t_x_1720                                            1 	(obj:10)
t_x_1722                                            1 	(obj:6)
t_x_1724                                            1 	(obj:0)
t_x_1733                                            1 	(obj:4)
t_x_1735                                            1 	(obj:4)
t_x_1737                                            1 	(obj:17)
t_x_1739                                            1 	(obj:0)
t_x_1742                                            1 	(obj:19)
t_x_1751                                            1 	(obj:14)
t_x_1760                                            1 	(obj:2)
t_x_1766                                            1 	(obj:10)
t_x_1773                                            1 	(obj:47)
t_x_1774                                            1 	(obj:10)
t_x_1775                                            1 	(obj:43)
t_x_1776                                            1 	(obj:5)
t_x_1780                                            1 	(obj:16)
t_x_1789                                            1 	(obj:36)
t_x_1790                                            1 	(obj:36)
t_x_1793                                            1 	(obj:0)
t_x_1799                                            1 	(obj:2)
t_x_1805                                            1 	(obj:30)
t_x_1808                                            1 	(obj:17)
t_x_1809                                            1 	(obj:26)
t_x_1810                                            1 	(obj:16)
t_x_1811                                            1 	(obj:20)
t_x_1813                                            1 	(obj:23)
t_x_1814                                            1 	(obj:3)
t_x_1817                                            1 	(obj:18)
t_x_1818                                            1 	(obj:22)
t_x_1819                                            1 	(obj:27)
t_x_1822                                            1 	(obj:0)
t_x_1831                                            1 	(obj:10)
t_x_1832                                            1 	(obj:35)
t_x_1834                                            1 	(obj:15)
t_x_1835                                            1 	(obj:12)
t_x_1845                                            1 	(obj:68)
t_x_1846                                            1 	(obj:36)
t_x_1851                                            1 	(obj:16)
t_x_1853                                            1 	(obj:8)
t_x_1855                                            1 	(obj:44)
t_x_1856                                            1 	(obj:26)
t_x_1861                                            1 	(obj:65)
t_x_1865                                            1 	(obj:61)
t_x_1870                                            1 	(obj:28)
t_x_1873                                            1 	(obj:24)
t_x_1879                                            1 	(obj:28)
t_x_1887                                            1 	(obj:2)
t_x_1888                                            1 	(obj:3)
t_x_1891                                            1 	(obj:23)
t_x_1896                                            1 	(obj:1)
t_x_1900                                            1 	(obj:14)
t_x_1901                                            1 	(obj:4)
t_x_1905                                            1 	(obj:16)
t_x_1907                                            1 	(obj:43)
t_x_1908                                            1 	(obj:46)
t_x_1915                                            1 	(obj:47)
t_x_1917                                            1 	(obj:0)
t_x_1918                                            1 	(obj:11)
t_x_1920                                            1 	(obj:10)
t_x_1921                                            1 	(obj:15)
t_x_1923                                            1 	(obj:16)
t_x_1925                                            1 	(obj:13)
t_x_1929                                            1 	(obj:0)
t_x_1934                                            1 	(obj:8)
t_x_1936                                            1 	(obj:3)
t_x_1937                                            1 	(obj:1)
t_x_1941                                            1 	(obj:64)
t_x_1944                                            1 	(obj:15)
t_x_1946                                            1 	(obj:9)
t_x_1949                                            1 	(obj:33)
t_x_1954                                            1 	(obj:29)
t_x_1958                                            1 	(obj:3)
t_x_1961                                            1 	(obj:4)
t_x_1970                                            1 	(obj:12)
t_x_1972                                            1 	(obj:10)
t_x_1973                                            1 	(obj:12)
t_x_1979                                            1 	(obj:16)
t_x_1981                                            1 	(obj:5)
t_x_1986                                            1 	(obj:53)
t_x_1988                                            1 	(obj:27)
t_x_1989                                            1 	(obj:23)
t_x_1992                                            1 	(obj:7)
t_x_1994                                            1 	(obj:24)
t_x_1996                                            1 	(obj:2)
t_x_1999                                            1 	(obj:7)
